webassembly/ejemplos_dzn/folder14_json_41.dzn
TERM = { '.', 's(5)', 's(2)', 's(4)', 'in_1', 'local_0', 'local_1', 'in_2', 'in_3', 's(1)', 's(0)', 's(3)', 'in_0'};
null = '.';
s = 14;
n = 9;
ndeps = 4;
max_registers_sz = 5;
NR = 2;
registers = [|'local_0', 's(2)', |'local_1', 's(3)'|];
dependencies = [|'i32.store8_0', 'i32.load_2', |'i32.store8_0', 'i32.load16_u_6', |'i32.store8_0', 'i32.load16_s_12', |'i32.store8_0', 'i32.load16_s_13'|];
GET_ENUM = { GET1, GET2, GET3, GET4, GET5, GET6, GET7};
SET_ENUM = { SET1, SET2, SET3, SET4, SET5, SET6, SET7};
TEE_ENUM = { TEE1, TEE2, TEE3, TEE4, TEE5, TEE6, TEE7};
N = 7;
OP = { 'i32.store8_0', 'i32.load_2', 'i32.add_0', 'i32.load16_u_6', 'i32.load16_s_12', 'i32.load16_s_13', 'i32.add_1' };
in_ops = [2, 1, 2, 1, 1, 1, 2 ];
out_ops = [0, 1, 1, 1, 1, 1, 1 ];
in1 = ['in_0', 'local_1', 'local_1', 's(1)', 'in_3', 's(4)', 's(2)' ];
in2 = ['in_1', '.', 's(0)', '.', '.', '.', 'in_2' ];
in3 = ['.', '.', '.', '.', '.', '.', '.' ];
out1 = ['.', 's(0)', 's(1)', 's(2)', 's(4)', 's(5)', 's(3)' ];
out2 = ['.', '.', '.', '.', '.', '.', '.' ];
out3 = ['.', '.', '.', '.', '.', '.', '.' ];
comm = [false, false, true, false, false, false, true ];
gas = [1, 1, 1, 1, 1, 1, 1 ];
sz = [1, 1, 1, 1, 1, 1, 1 ];
stor = [true, false, false, false, false, false, false ];
lb = [ 1, 1, 1, 1, 1, 1, 1 ];
ub = [ 14, 14, 14, 14, 14, 14, 14 ];
startstack = [ 'in_0', 'in_1', 'in_2', 'in_3', null, null, null, null, null ];
endstack = [ 's(5)', null, null, null, null, null, null, null, null ];
